data;
set K:= K1 K2 K3 K4 K5 K6 K7 K8 K9 K10 K11 K12 K13 K14 K15 ;

set F:= F1 F2 F3 ;

set Q:= Q1 Q2 ;

param T:= 45;
param V: 
	K1  K2  K3  K4  K5  K6  K7  K8  K9  K10 K11 K12 K13 K14 K15 :=
Q1	1   1   1   1   1   1   1   1   1   0   0   0   0   0   0   
Q2	0   0   0   0   0   0   0   0   0   1   1   1   1   1   1   
; # if resorce k is of type q

param TF:= 
K1 6
K2 6
K3 6
K4 6
K5 6
K6 6
K7 6
K8 6
K9 6
K10 12
K11 12
K12 12
K13 12
K14 12
K15 12
; # number of continuous time slots resource can fly

param TR:= 
K1 2
K2 2
K3 2
K4 2
K5 2
K6 2
K7 2
K8 2
K9 2
K10 4
K11 4
K12 4
K13 4
K14 4
K15 4
; #  number of continuous time slots resource k needs to rest between flights

param P:= 
K1 36
K2 36
K3 36
K4 36
K5 36
K6 36
K7 36
K8 36
K9 36
K10 36
K11 36
K12 36
K13 36
K14 36
K15 36
; #  number of continuous time slots a pilot can be present including rest times for resource k 

param N:= 
K1 4
K2 4
K3 4
K4 4
K5 4
K6 4
K7 4
K8 4
K9 4
K10 2
K11 2
K12 2
K13 2
K14 2
K15 2
; # max number of flights resource k can fly in the total time period

param A: 
	K1  K2  K3  K4  K5  K6  K7  K8  K9  K10 K11 K12 K13 K14 K15 :=
1	1   1   1   1   1   1   1   1   1   1   1   1   1   1   1   
2	1   1   1   1   1   1   1   1   1   1   1   1   1   1   1   
3	1   1   1   1   1   1   1   1   1   1   1   1   1   1   1   
4	1   1   1   1   1   1   1   1   1   1   1   1   1   1   1   
5	1   1   1   1   1   1   1   1   1   1   1   1   1   1   1   
6	1   1   1   1   1   1   1   1   1   1   1   1   1   1   1   
7	1   1   1   1   1   1   1   1   1   1   1   1   1   1   1   
8	1   1   1   1   1   1   1   1   1   1   1   1   1   1   1   
9	1   1   1   1   1   1   1   1   1   1   1   1   1   1   1   
10	1   1   1   1   1   1   1   1   1   1   1   1   1   1   1   
11	1   1   1   1   1   1   1   1   1   1   1   1   1   1   1   
12	1   1   1   1   1   1   1   1   1   1   1   1   1   1   1   
13	1   1   1   1   1   1   1   1   1   1   1   1   1   1   1   
14	1   1   1   1   1   1   1   1   1   1   1   1   1   1   1   
15	1   1   1   1   1   1   1   1   1   1   1   1   1   1   1   
16	1   1   1   1   1   1   1   1   1   1   1   1   1   1   1   
17	1   1   1   1   1   1   1   1   1   1   1   1   1   1   1   
18	1   1   1   1   1   1   1   1   1   1   1   1   1   1   1   
19	1   1   1   1   1   1   1   1   1   1   1   1   1   1   1   
20	1   1   1   1   1   1   1   1   1   1   1   1   1   1   1   
21	1   1   1   1   1   1   1   1   1   1   1   1   1   1   1   
22	1   1   1   1   1   1   1   1   1   1   1   1   1   1   1   
23	1   1   1   1   1   1   1   1   1   1   1   1   1   1   1   
24	1   1   1   1   1   1   1   1   1   1   1   1   1   1   1   
25	1   1   1   1   1   1   1   1   1   1   1   1   1   1   1   
26	1   1   1   1   1   1   1   1   1   1   1   1   1   1   1   
27	1   1   1   1   1   1   1   1   1   1   1   1   1   1   1   
28	1   1   1   1   1   1   1   1   1   1   1   1   1   1   1   
29	1   1   1   1   1   1   1   1   1   1   1   1   1   1   1   
30	1   1   1   1   1   1   1   1   1   1   1   1   1   1   1   
31	1   1   1   1   1   1   1   1   1   1   1   1   1   1   1   
32	1   1   1   1   1   1   1   1   1   1   1   1   1   1   1   
33	1   1   1   1   1   1   1   1   1   1   1   1   1   1   1   
34	1   1   1   1   1   1   1   1   1   1   1   1   1   1   1   
35	1   1   1   1   1   1   1   1   1   1   1   1   1   1   1   
36	1   1   1   1   1   1   1   1   1   1   1   1   1   1   1   
37	1   1   1   1   1   1   1   1   1   1   1   1   1   1   1   
38	1   1   1   1   1   1   1   1   1   1   1   1   1   1   1   
39	1   1   1   1   1   1   1   1   1   1   1   1   1   1   1   
40	1   1   1   1   1   1   1   1   1   1   1   1   1   1   1   
41	1   1   1   1   1   1   1   1   1   1   1   1   1   1   1   
42	1   1   1   1   1   1   1   1   1   1   1   1   1   1   1   
43	1   1   1   1   1   1   1   1   1   1   1   1   1   1   1   
44	1   1   1   1   1   1   1   1   1   1   1   1   1   1   1   
45	1   1   1   1   1   1   1   1   1   1   1   1   1   1   1   
; # availability of resorce k in time slot t

param B: 
	F1  F2  F3  :=
Q1	0   1   0   
Q2	0   0   0   
; # if front f requires resources of type q

param U: 
	F1  F2  F3  :=
K1	0   0   0   
K2	0   0   0   
K3	0   0   0   
K4	0   0   0   
K5	0   0   0   
K6	0   0   0   
K7	0   0   0   
K8	0   0   0   
K9	0   0   0   
K10	2   2   2   
K11	1   1   1   
K12	1   1   1   
K13	2   2   2   
K14	1   1   1   
K15	1   1   1   
; # transit time of resource

param C:= 
K1 900
K2 900
K3 900
K4 900
K5 900
K6 1500
K7 1500
K8 4500
K9 4500
K10 5500
K11 5500
K12 5500
K13 5500
K14 5500
K15 5500
; #  water capacity of resource k

param S:= 
F1 10
F2 10
F3 9
; # max number of resources that can fly at front f in the same time slot

param D:= 

[*,*,F1 ]:  K1    K2    K3    K4    K5    K6    K7    K8    K9    K10   K11   K12   K13   K14   K15   :=
1           1.82  1.82  1.82  1.82  1.82  1.82  1.82  1.45  1.45  1.09  1.09  1.09  1.09  1.09  1.09  
2           1.82  1.82  1.82  1.82  1.82  1.82  1.82  1.45  1.45  1.09  1.09  1.09  1.09  1.09  1.09  
3           1.82  1.82  1.82  1.82  1.82  1.82  1.82  1.45  1.45  1.09  1.09  1.09  1.09  1.09  1.09  
4           1.82  1.82  1.82  1.82  1.82  1.82  1.82  1.45  1.45  1.09  1.09  1.09  1.09  1.09  1.09  
5           1.82  1.82  1.82  1.82  1.82  1.82  1.82  1.45  1.45  1.09  1.09  1.09  1.09  1.09  1.09  
6           1.82  1.82  1.82  1.82  1.82  1.82  1.82  1.45  1.45  1.09  1.09  1.09  1.09  1.09  1.09  
7           1.82  1.82  1.82  1.82  1.82  1.82  1.82  1.45  1.45  1.09  1.09  1.09  1.09  1.09  1.09  
8           1.82  1.82  1.82  1.82  1.82  1.82  1.82  1.45  1.45  1.09  1.09  1.09  1.09  1.09  1.09  
9           1.82  1.82  1.82  1.82  1.82  1.82  1.82  1.45  1.45  1.09  1.09  1.09  1.09  1.09  1.09  
10          1.82  1.82  1.82  1.82  1.82  1.82  1.82  1.45  1.45  1.09  1.09  1.09  1.09  1.09  1.09  
11          1.82  1.82  1.82  1.82  1.82  1.82  1.82  1.45  1.45  1.09  1.09  1.09  1.09  1.09  1.09  
12          1.82  1.82  1.82  1.82  1.82  1.82  1.82  1.45  1.45  1.09  1.09  1.09  1.09  1.09  1.09  
13          1.82  1.82  1.82  1.82  1.82  1.82  1.82  1.45  1.45  1.09  1.09  1.09  1.09  1.09  1.09  
14          1.82  1.82  1.82  1.82  1.82  1.82  1.82  1.45  1.45  1.09  1.09  1.09  1.09  1.09  1.09  
15          1.82  1.82  1.82  1.82  1.82  1.82  1.82  1.45  1.45  1.09  1.09  1.09  1.09  1.09  1.09  
16          1.82  1.82  1.82  1.82  1.82  1.82  1.82  1.45  1.45  1.09  1.09  1.09  1.09  1.09  1.09  
17          1.82  1.82  1.82  1.82  1.82  1.82  1.82  1.45  1.45  1.09  1.09  1.09  1.09  1.09  1.09  
18          1.82  1.82  1.82  1.82  1.82  1.82  1.82  1.45  1.45  1.09  1.09  1.09  1.09  1.09  1.09  
19          1.82  1.82  1.82  1.82  1.82  1.82  1.82  1.45  1.45  1.09  1.09  1.09  1.09  1.09  1.09  
20          1.82  1.82  1.82  1.82  1.82  1.82  1.82  1.45  1.45  1.09  1.09  1.09  1.09  1.09  1.09  
21          1.82  1.82  1.82  1.82  1.82  1.82  1.82  1.45  1.45  1.09  1.09  1.09  1.09  1.09  1.09  
22          1.82  1.82  1.82  1.82  1.82  1.82  1.82  1.45  1.45  1.09  1.09  1.09  1.09  1.09  1.09  
23          1.82  1.82  1.82  1.82  1.82  1.82  1.82  1.45  1.45  1.09  1.09  1.09  1.09  1.09  1.09  
24          1.82  1.82  1.82  1.82  1.82  1.82  1.82  1.45  1.45  1.09  1.09  1.09  1.09  1.09  1.09  
25          1.73  1.73  1.73  1.73  1.73  1.73  1.73  1.38  1.38  1.04  1.04  1.04  1.04  1.04  1.04  
26          1.73  1.73  1.73  1.73  1.73  1.73  1.73  1.38  1.38  1.04  1.04  1.04  1.04  1.04  1.04  
27          1.73  1.73  1.73  1.73  1.73  1.73  1.73  1.38  1.38  1.04  1.04  1.04  1.04  1.04  1.04  
28          1.73  1.73  1.73  1.73  1.73  1.73  1.73  1.38  1.38  1.04  1.04  1.04  1.04  1.04  1.04  
29          1.73  1.73  1.73  1.73  1.73  1.73  1.73  1.38  1.38  1.04  1.04  1.04  1.04  1.04  1.04  
30          1.73  1.73  1.73  1.73  1.73  1.73  1.73  1.38  1.38  1.04  1.04  1.04  1.04  1.04  1.04  
31          1.73  1.73  1.73  1.73  1.73  1.73  1.73  1.38  1.38  1.04  1.04  1.04  1.04  1.04  1.04  
32          1.73  1.73  1.73  1.73  1.73  1.73  1.73  1.38  1.38  1.04  1.04  1.04  1.04  1.04  1.04  
33          1.73  1.73  1.73  1.73  1.73  1.73  1.73  1.38  1.38  1.04  1.04  1.04  1.04  1.04  1.04  
34          1.82  1.82  1.82  1.82  1.82  1.82  1.82  1.45  1.45  1.09  1.09  1.09  1.09  1.09  1.09  
35          1.82  1.82  1.82  1.82  1.82  1.82  1.82  1.45  1.45  1.09  1.09  1.09  1.09  1.09  1.09  
36          1.82  1.82  1.82  1.82  1.82  1.82  1.82  1.45  1.45  1.09  1.09  1.09  1.09  1.09  1.09  
37          1.82  1.82  1.82  1.82  1.82  1.82  1.82  1.45  1.45  1.09  1.09  1.09  1.09  1.09  1.09  
38          1.82  1.82  1.82  1.82  1.82  1.82  1.82  1.45  1.45  1.09  1.09  1.09  1.09  1.09  1.09  
39          1.82  1.82  1.82  1.82  1.82  1.82  1.82  1.45  1.45  1.09  1.09  1.09  1.09  1.09  1.09  
40          1.82  1.82  1.82  1.82  1.82  1.82  1.82  1.45  1.45  1.09  1.09  1.09  1.09  1.09  1.09  
41          1.82  1.82  1.82  1.82  1.82  1.82  1.82  1.45  1.45  1.09  1.09  1.09  1.09  1.09  1.09  
42          1.82  1.82  1.82  1.82  1.82  1.82  1.82  1.45  1.45  1.09  1.09  1.09  1.09  1.09  1.09  
43          1.82  1.82  1.82  1.82  1.82  1.82  1.82  1.45  1.45  1.09  1.09  1.09  1.09  1.09  1.09  
44          1.82  1.82  1.82  1.82  1.82  1.82  1.82  1.45  1.45  1.09  1.09  1.09  1.09  1.09  1.09  
45          1.82  1.82  1.82  1.82  1.82  1.82  1.82  1.45  1.45  1.09  1.09  1.09  1.09  1.09  1.09  

[*,*,F2 ]:  K1    K2    K3    K4    K5    K6    K7    K8    K9    K10   K11   K12   K13   K14   K15   :=
1           1.77  1.77  1.77  1.77  1.77  1.77  1.77  1.41  1.41  1.06  1.06  1.06  1.06  1.06  1.06  
2           1.77  1.77  1.77  1.77  1.77  1.77  1.77  1.41  1.41  1.06  1.06  1.06  1.06  1.06  1.06  
3           1.77  1.77  1.77  1.77  1.77  1.77  1.77  1.41  1.41  1.06  1.06  1.06  1.06  1.06  1.06  
4           1.77  1.77  1.77  1.77  1.77  1.77  1.77  1.41  1.41  1.06  1.06  1.06  1.06  1.06  1.06  
5           1.77  1.77  1.77  1.77  1.77  1.77  1.77  1.41  1.41  1.06  1.06  1.06  1.06  1.06  1.06  
6           1.77  1.77  1.77  1.77  1.77  1.77  1.77  1.41  1.41  1.06  1.06  1.06  1.06  1.06  1.06  
7           1.77  1.77  1.77  1.77  1.77  1.77  1.77  1.41  1.41  1.06  1.06  1.06  1.06  1.06  1.06  
8           1.77  1.77  1.77  1.77  1.77  1.77  1.77  1.41  1.41  1.06  1.06  1.06  1.06  1.06  1.06  
9           1.77  1.77  1.77  1.77  1.77  1.77  1.77  1.41  1.41  1.06  1.06  1.06  1.06  1.06  1.06  
10          1.77  1.77  1.77  1.77  1.77  1.77  1.77  1.41  1.41  1.06  1.06  1.06  1.06  1.06  1.06  
11          1.77  1.77  1.77  1.77  1.77  1.77  1.77  1.41  1.41  1.06  1.06  1.06  1.06  1.06  1.06  
12          1.77  1.77  1.77  1.77  1.77  1.77  1.77  1.41  1.41  1.06  1.06  1.06  1.06  1.06  1.06  
13          1.77  1.77  1.77  1.77  1.77  1.77  1.77  1.41  1.41  1.06  1.06  1.06  1.06  1.06  1.06  
14          1.77  1.77  1.77  1.77  1.77  1.77  1.77  1.41  1.41  1.06  1.06  1.06  1.06  1.06  1.06  
15          1.77  1.77  1.77  1.77  1.77  1.77  1.77  1.41  1.41  1.06  1.06  1.06  1.06  1.06  1.06  
16          1.77  1.77  1.77  1.77  1.77  1.77  1.77  1.41  1.41  1.06  1.06  1.06  1.06  1.06  1.06  
17          1.77  1.77  1.77  1.77  1.77  1.77  1.77  1.41  1.41  1.06  1.06  1.06  1.06  1.06  1.06  
18          1.77  1.77  1.77  1.77  1.77  1.77  1.77  1.41  1.41  1.06  1.06  1.06  1.06  1.06  1.06  
19          1.77  1.77  1.77  1.77  1.77  1.77  1.77  1.41  1.41  1.06  1.06  1.06  1.06  1.06  1.06  
20          1.77  1.77  1.77  1.77  1.77  1.77  1.77  1.41  1.41  1.06  1.06  1.06  1.06  1.06  1.06  
21          1.77  1.77  1.77  1.77  1.77  1.77  1.77  1.41  1.41  1.06  1.06  1.06  1.06  1.06  1.06  
22          1.77  1.77  1.77  1.77  1.77  1.77  1.77  1.41  1.41  1.06  1.06  1.06  1.06  1.06  1.06  
23          1.77  1.77  1.77  1.77  1.77  1.77  1.77  1.41  1.41  1.06  1.06  1.06  1.06  1.06  1.06  
24          1.77  1.77  1.77  1.77  1.77  1.77  1.77  1.41  1.41  1.06  1.06  1.06  1.06  1.06  1.06  
25          1.68  1.68  1.68  1.68  1.68  1.68  1.68  1.34  1.34  1.01  1.01  1.01  1.01  1.01  1.01  
26          1.68  1.68  1.68  1.68  1.68  1.68  1.68  1.34  1.34  1.01  1.01  1.01  1.01  1.01  1.01  
27          1.68  1.68  1.68  1.68  1.68  1.68  1.68  1.34  1.34  1.01  1.01  1.01  1.01  1.01  1.01  
28          1.68  1.68  1.68  1.68  1.68  1.68  1.68  1.34  1.34  1.01  1.01  1.01  1.01  1.01  1.01  
29          1.68  1.68  1.68  1.68  1.68  1.68  1.68  1.34  1.34  1.01  1.01  1.01  1.01  1.01  1.01  
30          1.68  1.68  1.68  1.68  1.68  1.68  1.68  1.34  1.34  1.01  1.01  1.01  1.01  1.01  1.01  
31          1.68  1.68  1.68  1.68  1.68  1.68  1.68  1.34  1.34  1.01  1.01  1.01  1.01  1.01  1.01  
32          1.68  1.68  1.68  1.68  1.68  1.68  1.68  1.34  1.34  1.01  1.01  1.01  1.01  1.01  1.01  
33          1.68  1.68  1.68  1.68  1.68  1.68  1.68  1.34  1.34  1.01  1.01  1.01  1.01  1.01  1.01  
34          1.77  1.77  1.77  1.77  1.77  1.77  1.77  1.41  1.41  1.06  1.06  1.06  1.06  1.06  1.06  
35          1.77  1.77  1.77  1.77  1.77  1.77  1.77  1.41  1.41  1.06  1.06  1.06  1.06  1.06  1.06  
36          1.77  1.77  1.77  1.77  1.77  1.77  1.77  1.41  1.41  1.06  1.06  1.06  1.06  1.06  1.06  
37          1.77  1.77  1.77  1.77  1.77  1.77  1.77  1.41  1.41  1.06  1.06  1.06  1.06  1.06  1.06  
38          1.77  1.77  1.77  1.77  1.77  1.77  1.77  1.41  1.41  1.06  1.06  1.06  1.06  1.06  1.06  
39          1.77  1.77  1.77  1.77  1.77  1.77  1.77  1.41  1.41  1.06  1.06  1.06  1.06  1.06  1.06  
40          1.77  1.77  1.77  1.77  1.77  1.77  1.77  1.41  1.41  1.06  1.06  1.06  1.06  1.06  1.06  
41          1.77  1.77  1.77  1.77  1.77  1.77  1.77  1.41  1.41  1.06  1.06  1.06  1.06  1.06  1.06  
42          1.77  1.77  1.77  1.77  1.77  1.77  1.77  1.41  1.41  1.06  1.06  1.06  1.06  1.06  1.06  
43          1.77  1.77  1.77  1.77  1.77  1.77  1.77  1.41  1.41  1.06  1.06  1.06  1.06  1.06  1.06  
44          1.77  1.77  1.77  1.77  1.77  1.77  1.77  1.41  1.41  1.06  1.06  1.06  1.06  1.06  1.06  
45          1.77  1.77  1.77  1.77  1.77  1.77  1.77  1.41  1.41  1.06  1.06  1.06  1.06  1.06  1.06  

[*,*,F3 ]:  K1    K2    K3    K4    K5    K6    K7    K8    K9    K10   K11   K12   K13   K14   K15   :=
1           1.72  1.72  1.72  1.72  1.72  1.72  1.72  1.37  1.37  1.03  1.03  1.03  1.03  1.03  1.03  
2           1.72  1.72  1.72  1.72  1.72  1.72  1.72  1.37  1.37  1.03  1.03  1.03  1.03  1.03  1.03  
3           1.72  1.72  1.72  1.72  1.72  1.72  1.72  1.37  1.37  1.03  1.03  1.03  1.03  1.03  1.03  
4           1.72  1.72  1.72  1.72  1.72  1.72  1.72  1.37  1.37  1.03  1.03  1.03  1.03  1.03  1.03  
5           1.72  1.72  1.72  1.72  1.72  1.72  1.72  1.37  1.37  1.03  1.03  1.03  1.03  1.03  1.03  
6           1.72  1.72  1.72  1.72  1.72  1.72  1.72  1.37  1.37  1.03  1.03  1.03  1.03  1.03  1.03  
7           1.72  1.72  1.72  1.72  1.72  1.72  1.72  1.37  1.37  1.03  1.03  1.03  1.03  1.03  1.03  
8           1.72  1.72  1.72  1.72  1.72  1.72  1.72  1.37  1.37  1.03  1.03  1.03  1.03  1.03  1.03  
9           1.72  1.72  1.72  1.72  1.72  1.72  1.72  1.37  1.37  1.03  1.03  1.03  1.03  1.03  1.03  
10          1.72  1.72  1.72  1.72  1.72  1.72  1.72  1.37  1.37  1.03  1.03  1.03  1.03  1.03  1.03  
11          1.72  1.72  1.72  1.72  1.72  1.72  1.72  1.37  1.37  1.03  1.03  1.03  1.03  1.03  1.03  
12          1.72  1.72  1.72  1.72  1.72  1.72  1.72  1.37  1.37  1.03  1.03  1.03  1.03  1.03  1.03  
13          1.72  1.72  1.72  1.72  1.72  1.72  1.72  1.37  1.37  1.03  1.03  1.03  1.03  1.03  1.03  
14          1.72  1.72  1.72  1.72  1.72  1.72  1.72  1.37  1.37  1.03  1.03  1.03  1.03  1.03  1.03  
15          1.72  1.72  1.72  1.72  1.72  1.72  1.72  1.37  1.37  1.03  1.03  1.03  1.03  1.03  1.03  
16          1.72  1.72  1.72  1.72  1.72  1.72  1.72  1.37  1.37  1.03  1.03  1.03  1.03  1.03  1.03  
17          1.72  1.72  1.72  1.72  1.72  1.72  1.72  1.37  1.37  1.03  1.03  1.03  1.03  1.03  1.03  
18          1.72  1.72  1.72  1.72  1.72  1.72  1.72  1.37  1.37  1.03  1.03  1.03  1.03  1.03  1.03  
19          1.72  1.72  1.72  1.72  1.72  1.72  1.72  1.37  1.37  1.03  1.03  1.03  1.03  1.03  1.03  
20          1.72  1.72  1.72  1.72  1.72  1.72  1.72  1.37  1.37  1.03  1.03  1.03  1.03  1.03  1.03  
21          1.72  1.72  1.72  1.72  1.72  1.72  1.72  1.37  1.37  1.03  1.03  1.03  1.03  1.03  1.03  
22          1.72  1.72  1.72  1.72  1.72  1.72  1.72  1.37  1.37  1.03  1.03  1.03  1.03  1.03  1.03  
23          1.72  1.72  1.72  1.72  1.72  1.72  1.72  1.37  1.37  1.03  1.03  1.03  1.03  1.03  1.03  
24          1.72  1.72  1.72  1.72  1.72  1.72  1.72  1.37  1.37  1.03  1.03  1.03  1.03  1.03  1.03  
25          1.63  1.63  1.63  1.63  1.63  1.63  1.63  1.30  1.30  0.98  0.98  0.98  0.98  0.98  0.98  
26          1.63  1.63  1.63  1.63  1.63  1.63  1.63  1.30  1.30  0.98  0.98  0.98  0.98  0.98  0.98  
27          1.63  1.63  1.63  1.63  1.63  1.63  1.63  1.30  1.30  0.98  0.98  0.98  0.98  0.98  0.98  
28          1.63  1.63  1.63  1.63  1.63  1.63  1.63  1.30  1.30  0.98  0.98  0.98  0.98  0.98  0.98  
29          1.63  1.63  1.63  1.63  1.63  1.63  1.63  1.30  1.30  0.98  0.98  0.98  0.98  0.98  0.98  
30          1.63  1.63  1.63  1.63  1.63  1.63  1.63  1.30  1.30  0.98  0.98  0.98  0.98  0.98  0.98  
31          1.63  1.63  1.63  1.63  1.63  1.63  1.63  1.30  1.30  0.98  0.98  0.98  0.98  0.98  0.98  
32          1.63  1.63  1.63  1.63  1.63  1.63  1.63  1.30  1.30  0.98  0.98  0.98  0.98  0.98  0.98  
33          1.63  1.63  1.63  1.63  1.63  1.63  1.63  1.30  1.30  0.98  0.98  0.98  0.98  0.98  0.98  
34          1.72  1.72  1.72  1.72  1.72  1.72  1.72  1.37  1.37  1.03  1.03  1.03  1.03  1.03  1.03  
35          1.72  1.72  1.72  1.72  1.72  1.72  1.72  1.37  1.37  1.03  1.03  1.03  1.03  1.03  1.03  
36          1.72  1.72  1.72  1.72  1.72  1.72  1.72  1.37  1.37  1.03  1.03  1.03  1.03  1.03  1.03  
37          1.72  1.72  1.72  1.72  1.72  1.72  1.72  1.37  1.37  1.03  1.03  1.03  1.03  1.03  1.03  
38          1.72  1.72  1.72  1.72  1.72  1.72  1.72  1.37  1.37  1.03  1.03  1.03  1.03  1.03  1.03  
39          1.72  1.72  1.72  1.72  1.72  1.72  1.72  1.37  1.37  1.03  1.03  1.03  1.03  1.03  1.03  
40          1.72  1.72  1.72  1.72  1.72  1.72  1.72  1.37  1.37  1.03  1.03  1.03  1.03  1.03  1.03  
41          1.72  1.72  1.72  1.72  1.72  1.72  1.72  1.37  1.37  1.03  1.03  1.03  1.03  1.03  1.03  
42          1.72  1.72  1.72  1.72  1.72  1.72  1.72  1.37  1.37  1.03  1.03  1.03  1.03  1.03  1.03  
43          1.72  1.72  1.72  1.72  1.72  1.72  1.72  1.37  1.37  1.03  1.03  1.03  1.03  1.03  1.03  
44          1.72  1.72  1.72  1.72  1.72  1.72  1.72  1.37  1.37  1.03  1.03  1.03  1.03  1.03  1.03  
45          1.72  1.72  1.72  1.72  1.72  1.72  1.72  1.37  1.37  1.03  1.03  1.03  1.03  1.03  1.03  
; # downloads resource k can do at front f in time t if intermediate time slot

param E:= 

[*,*,F1 ]:  K1    K2    K3    K4    K5    K6    K7    K8    K9    K10   K11   K12   K13   K14   K15   :=
1           0.62  0.44  0.75  0.38  0.55  0.76  0.87  0.67  0.28  0.14  0.38  0.15  0.33  0.46  0.20  
2           0.62  0.44  0.75  0.38  0.55  0.76  0.87  0.67  0.28  0.14  0.38  0.15  0.33  0.46  0.20  
3           0.62  0.44  0.75  0.38  0.55  0.76  0.87  0.67  0.28  0.14  0.38  0.15  0.33  0.46  0.20  
4           0.62  0.44  0.75  0.38  0.55  0.76  0.87  0.67  0.28  0.14  0.38  0.15  0.33  0.46  0.20  
5           0.62  0.44  0.75  0.38  0.55  0.76  0.87  0.67  0.28  0.14  0.38  0.15  0.33  0.46  0.20  
6           0.62  0.44  0.75  0.38  0.55  0.76  0.87  0.67  0.28  0.14  0.38  0.15  0.33  0.46  0.20  
7           0.62  0.44  0.75  0.38  0.55  0.76  0.87  0.67  0.28  0.14  0.38  0.15  0.33  0.46  0.20  
8           0.62  0.44  0.75  0.38  0.55  0.76  0.87  0.67  0.28  0.14  0.38  0.15  0.33  0.46  0.20  
9           0.62  0.44  0.75  0.38  0.55  0.76  0.87  0.67  0.28  0.14  0.38  0.15  0.33  0.46  0.20  
10          0.62  0.44  0.75  0.38  0.55  0.76  0.87  0.67  0.28  0.14  0.38  0.15  0.33  0.46  0.20  
11          0.62  0.44  0.75  0.38  0.55  0.76  0.87  0.67  0.28  0.14  0.38  0.15  0.33  0.46  0.20  
12          0.62  0.44  0.75  0.38  0.55  0.76  0.87  0.67  0.28  0.14  0.38  0.15  0.33  0.46  0.20  
13          0.62  0.44  0.75  0.38  0.55  0.76  0.87  0.67  0.28  0.14  0.38  0.15  0.33  0.46  0.20  
14          0.62  0.44  0.75  0.38  0.55  0.76  0.87  0.67  0.28  0.14  0.38  0.15  0.33  0.46  0.20  
15          0.62  0.44  0.75  0.38  0.55  0.76  0.87  0.67  0.28  0.14  0.38  0.15  0.33  0.46  0.20  
16          0.62  0.44  0.75  0.38  0.55  0.76  0.87  0.67  0.28  0.14  0.38  0.15  0.33  0.46  0.20  
17          0.62  0.44  0.75  0.38  0.55  0.76  0.87  0.67  0.28  0.14  0.38  0.15  0.33  0.46  0.20  
18          0.62  0.44  0.75  0.38  0.55  0.76  0.87  0.67  0.28  0.14  0.38  0.15  0.33  0.46  0.20  
19          0.62  0.44  0.75  0.38  0.55  0.76  0.87  0.67  0.28  0.14  0.38  0.15  0.33  0.46  0.20  
20          0.62  0.44  0.75  0.38  0.55  0.76  0.87  0.67  0.28  0.14  0.38  0.15  0.33  0.46  0.20  
21          0.62  0.44  0.75  0.38  0.55  0.76  0.87  0.67  0.28  0.14  0.38  0.15  0.33  0.46  0.20  
22          0.62  0.44  0.75  0.38  0.55  0.76  0.87  0.67  0.28  0.14  0.38  0.15  0.33  0.46  0.20  
23          0.62  0.44  0.75  0.38  0.55  0.76  0.87  0.67  0.28  0.14  0.38  0.15  0.33  0.46  0.20  
24          0.62  0.44  0.75  0.38  0.55  0.76  0.87  0.67  0.28  0.14  0.38  0.15  0.33  0.46  0.20  
25          0.59  0.42  0.71  0.36  0.52  0.73  0.83  0.63  0.26  0.13  0.36  0.14  0.31  0.43  0.19  
26          0.59  0.42  0.71  0.36  0.52  0.73  0.83  0.63  0.26  0.13  0.36  0.14  0.31  0.43  0.19  
27          0.59  0.42  0.71  0.36  0.52  0.73  0.83  0.63  0.26  0.13  0.36  0.14  0.31  0.43  0.19  
28          0.59  0.42  0.71  0.36  0.52  0.73  0.83  0.63  0.26  0.13  0.36  0.14  0.31  0.43  0.19  
29          0.59  0.42  0.71  0.36  0.52  0.73  0.83  0.63  0.26  0.13  0.36  0.14  0.31  0.43  0.19  
30          0.59  0.42  0.71  0.36  0.52  0.73  0.83  0.63  0.26  0.13  0.36  0.14  0.31  0.43  0.19  
31          0.59  0.42  0.71  0.36  0.52  0.73  0.83  0.63  0.26  0.13  0.36  0.14  0.31  0.43  0.19  
32          0.59  0.42  0.71  0.36  0.52  0.73  0.83  0.63  0.26  0.13  0.36  0.14  0.31  0.43  0.19  
33          0.59  0.42  0.71  0.36  0.52  0.73  0.83  0.63  0.26  0.13  0.36  0.14  0.31  0.43  0.19  
34          0.62  0.44  0.75  0.38  0.55  0.76  0.87  0.67  0.28  0.14  0.38  0.15  0.33  0.46  0.20  
35          0.62  0.44  0.75  0.38  0.55  0.76  0.87  0.67  0.28  0.14  0.38  0.15  0.33  0.46  0.20  
36          0.62  0.44  0.75  0.38  0.55  0.76  0.87  0.67  0.28  0.14  0.38  0.15  0.33  0.46  0.20  
37          0.62  0.44  0.75  0.38  0.55  0.76  0.87  0.67  0.28  0.14  0.38  0.15  0.33  0.46  0.20  
38          0.62  0.44  0.75  0.38  0.55  0.76  0.87  0.67  0.28  0.14  0.38  0.15  0.33  0.46  0.20  
39          0.62  0.44  0.75  0.38  0.55  0.76  0.87  0.67  0.28  0.14  0.38  0.15  0.33  0.46  0.20  
40          0.62  0.44  0.75  0.38  0.55  0.76  0.87  0.67  0.28  0.14  0.38  0.15  0.33  0.46  0.20  
41          0.62  0.44  0.75  0.38  0.55  0.76  0.87  0.67  0.28  0.14  0.38  0.15  0.33  0.46  0.20  
42          0.62  0.44  0.75  0.38  0.55  0.76  0.87  0.67  0.28  0.14  0.38  0.15  0.33  0.46  0.20  
43          0.62  0.44  0.75  0.38  0.55  0.76  0.87  0.67  0.28  0.14  0.38  0.15  0.33  0.46  0.20  
44          0.62  0.44  0.75  0.38  0.55  0.76  0.87  0.67  0.28  0.14  0.38  0.15  0.33  0.46  0.20  
45          0.62  0.44  0.75  0.38  0.55  0.76  0.87  0.67  0.28  0.14  0.38  0.15  0.33  0.46  0.20  

[*,*,F2 ]:  K1    K2    K3    K4    K5    K6    K7    K8    K9    K10   K11   K12   K13   K14   K15   :=
1           0.51  0.41  0.81  0.46  0.67  0.74  0.87  0.68  0.31  0.17  0.37  0.13  0.32  0.40  0.28  
2           0.51  0.41  0.81  0.46  0.67  0.74  0.87  0.68  0.31  0.17  0.37  0.13  0.32  0.40  0.28  
3           0.51  0.41  0.81  0.46  0.67  0.74  0.87  0.68  0.31  0.17  0.37  0.13  0.32  0.40  0.28  
4           0.51  0.41  0.81  0.46  0.67  0.74  0.87  0.68  0.31  0.17  0.37  0.13  0.32  0.40  0.28  
5           0.51  0.41  0.81  0.46  0.67  0.74  0.87  0.68  0.31  0.17  0.37  0.13  0.32  0.40  0.28  
6           0.51  0.41  0.81  0.46  0.67  0.74  0.87  0.68  0.31  0.17  0.37  0.13  0.32  0.40  0.28  
7           0.51  0.41  0.81  0.46  0.67  0.74  0.87  0.68  0.31  0.17  0.37  0.13  0.32  0.40  0.28  
8           0.51  0.41  0.81  0.46  0.67  0.74  0.87  0.68  0.31  0.17  0.37  0.13  0.32  0.40  0.28  
9           0.51  0.41  0.81  0.46  0.67  0.74  0.87  0.68  0.31  0.17  0.37  0.13  0.32  0.40  0.28  
10          0.51  0.41  0.81  0.46  0.67  0.74  0.87  0.68  0.31  0.17  0.37  0.13  0.32  0.40  0.28  
11          0.51  0.41  0.81  0.46  0.67  0.74  0.87  0.68  0.31  0.17  0.37  0.13  0.32  0.40  0.28  
12          0.51  0.41  0.81  0.46  0.67  0.74  0.87  0.68  0.31  0.17  0.37  0.13  0.32  0.40  0.28  
13          0.51  0.41  0.81  0.46  0.67  0.74  0.87  0.68  0.31  0.17  0.37  0.13  0.32  0.40  0.28  
14          0.51  0.41  0.81  0.46  0.67  0.74  0.87  0.68  0.31  0.17  0.37  0.13  0.32  0.40  0.28  
15          0.51  0.41  0.81  0.46  0.67  0.74  0.87  0.68  0.31  0.17  0.37  0.13  0.32  0.40  0.28  
16          0.51  0.41  0.81  0.46  0.67  0.74  0.87  0.68  0.31  0.17  0.37  0.13  0.32  0.40  0.28  
17          0.51  0.41  0.81  0.46  0.67  0.74  0.87  0.68  0.31  0.17  0.37  0.13  0.32  0.40  0.28  
18          0.51  0.41  0.81  0.46  0.67  0.74  0.87  0.68  0.31  0.17  0.37  0.13  0.32  0.40  0.28  
19          0.51  0.41  0.81  0.46  0.67  0.74  0.87  0.68  0.31  0.17  0.37  0.13  0.32  0.40  0.28  
20          0.51  0.41  0.81  0.46  0.67  0.74  0.87  0.68  0.31  0.17  0.37  0.13  0.32  0.40  0.28  
21          0.51  0.41  0.81  0.46  0.67  0.74  0.87  0.68  0.31  0.17  0.37  0.13  0.32  0.40  0.28  
22          0.51  0.41  0.81  0.46  0.67  0.74  0.87  0.68  0.31  0.17  0.37  0.13  0.32  0.40  0.28  
23          0.51  0.41  0.81  0.46  0.67  0.74  0.87  0.68  0.31  0.17  0.37  0.13  0.32  0.40  0.28  
24          0.51  0.41  0.81  0.46  0.67  0.74  0.87  0.68  0.31  0.17  0.37  0.13  0.32  0.40  0.28  
25          0.49  0.39  0.77  0.44  0.64  0.71  0.82  0.64  0.29  0.16  0.35  0.12  0.30  0.38  0.26  
26          0.49  0.39  0.77  0.44  0.64  0.71  0.82  0.64  0.29  0.16  0.35  0.12  0.30  0.38  0.26  
27          0.49  0.39  0.77  0.44  0.64  0.71  0.82  0.64  0.29  0.16  0.35  0.12  0.30  0.38  0.26  
28          0.49  0.39  0.77  0.44  0.64  0.71  0.82  0.64  0.29  0.16  0.35  0.12  0.30  0.38  0.26  
29          0.49  0.39  0.77  0.44  0.64  0.71  0.82  0.64  0.29  0.16  0.35  0.12  0.30  0.38  0.26  
30          0.49  0.39  0.77  0.44  0.64  0.71  0.82  0.64  0.29  0.16  0.35  0.12  0.30  0.38  0.26  
31          0.49  0.39  0.77  0.44  0.64  0.71  0.82  0.64  0.29  0.16  0.35  0.12  0.30  0.38  0.26  
32          0.49  0.39  0.77  0.44  0.64  0.71  0.82  0.64  0.29  0.16  0.35  0.12  0.30  0.38  0.26  
33          0.49  0.39  0.77  0.44  0.64  0.71  0.82  0.64  0.29  0.16  0.35  0.12  0.30  0.38  0.26  
34          0.51  0.41  0.81  0.46  0.67  0.74  0.87  0.68  0.31  0.17  0.37  0.13  0.32  0.40  0.28  
35          0.51  0.41  0.81  0.46  0.67  0.74  0.87  0.68  0.31  0.17  0.37  0.13  0.32  0.40  0.28  
36          0.51  0.41  0.81  0.46  0.67  0.74  0.87  0.68  0.31  0.17  0.37  0.13  0.32  0.40  0.28  
37          0.51  0.41  0.81  0.46  0.67  0.74  0.87  0.68  0.31  0.17  0.37  0.13  0.32  0.40  0.28  
38          0.51  0.41  0.81  0.46  0.67  0.74  0.87  0.68  0.31  0.17  0.37  0.13  0.32  0.40  0.28  
39          0.51  0.41  0.81  0.46  0.67  0.74  0.87  0.68  0.31  0.17  0.37  0.13  0.32  0.40  0.28  
40          0.51  0.41  0.81  0.46  0.67  0.74  0.87  0.68  0.31  0.17  0.37  0.13  0.32  0.40  0.28  
41          0.51  0.41  0.81  0.46  0.67  0.74  0.87  0.68  0.31  0.17  0.37  0.13  0.32  0.40  0.28  
42          0.51  0.41  0.81  0.46  0.67  0.74  0.87  0.68  0.31  0.17  0.37  0.13  0.32  0.40  0.28  
43          0.51  0.41  0.81  0.46  0.67  0.74  0.87  0.68  0.31  0.17  0.37  0.13  0.32  0.40  0.28  
44          0.51  0.41  0.81  0.46  0.67  0.74  0.87  0.68  0.31  0.17  0.37  0.13  0.32  0.40  0.28  
45          0.51  0.41  0.81  0.46  0.67  0.74  0.87  0.68  0.31  0.17  0.37  0.13  0.32  0.40  0.28  

[*,*,F3 ]:  K1    K2    K3    K4    K5    K6    K7    K8    K9    K10   K11   K12   K13   K14   K15   :=
1           0.50  0.40  0.72  0.46  0.64  0.71  0.95  0.55  0.25  0.20  0.39  0.13  0.29  0.41  0.24  
2           0.50  0.40  0.72  0.46  0.64  0.71  0.95  0.55  0.25  0.20  0.39  0.13  0.29  0.41  0.24  
3           0.50  0.40  0.72  0.46  0.64  0.71  0.95  0.55  0.25  0.20  0.39  0.13  0.29  0.41  0.24  
4           0.50  0.40  0.72  0.46  0.64  0.71  0.95  0.55  0.25  0.20  0.39  0.13  0.29  0.41  0.24  
5           0.50  0.40  0.72  0.46  0.64  0.71  0.95  0.55  0.25  0.20  0.39  0.13  0.29  0.41  0.24  
6           0.50  0.40  0.72  0.46  0.64  0.71  0.95  0.55  0.25  0.20  0.39  0.13  0.29  0.41  0.24  
7           0.50  0.40  0.72  0.46  0.64  0.71  0.95  0.55  0.25  0.20  0.39  0.13  0.29  0.41  0.24  
8           0.50  0.40  0.72  0.46  0.64  0.71  0.95  0.55  0.25  0.20  0.39  0.13  0.29  0.41  0.24  
9           0.50  0.40  0.72  0.46  0.64  0.71  0.95  0.55  0.25  0.20  0.39  0.13  0.29  0.41  0.24  
10          0.50  0.40  0.72  0.46  0.64  0.71  0.95  0.55  0.25  0.20  0.39  0.13  0.29  0.41  0.24  
11          0.50  0.40  0.72  0.46  0.64  0.71  0.95  0.55  0.25  0.20  0.39  0.13  0.29  0.41  0.24  
12          0.50  0.40  0.72  0.46  0.64  0.71  0.95  0.55  0.25  0.20  0.39  0.13  0.29  0.41  0.24  
13          0.50  0.40  0.72  0.46  0.64  0.71  0.95  0.55  0.25  0.20  0.39  0.13  0.29  0.41  0.24  
14          0.50  0.40  0.72  0.46  0.64  0.71  0.95  0.55  0.25  0.20  0.39  0.13  0.29  0.41  0.24  
15          0.50  0.40  0.72  0.46  0.64  0.71  0.95  0.55  0.25  0.20  0.39  0.13  0.29  0.41  0.24  
16          0.50  0.40  0.72  0.46  0.64  0.71  0.95  0.55  0.25  0.20  0.39  0.13  0.29  0.41  0.24  
17          0.50  0.40  0.72  0.46  0.64  0.71  0.95  0.55  0.25  0.20  0.39  0.13  0.29  0.41  0.24  
18          0.50  0.40  0.72  0.46  0.64  0.71  0.95  0.55  0.25  0.20  0.39  0.13  0.29  0.41  0.24  
19          0.50  0.40  0.72  0.46  0.64  0.71  0.95  0.55  0.25  0.20  0.39  0.13  0.29  0.41  0.24  
20          0.50  0.40  0.72  0.46  0.64  0.71  0.95  0.55  0.25  0.20  0.39  0.13  0.29  0.41  0.24  
21          0.50  0.40  0.72  0.46  0.64  0.71  0.95  0.55  0.25  0.20  0.39  0.13  0.29  0.41  0.24  
22          0.50  0.40  0.72  0.46  0.64  0.71  0.95  0.55  0.25  0.20  0.39  0.13  0.29  0.41  0.24  
23          0.50  0.40  0.72  0.46  0.64  0.71  0.95  0.55  0.25  0.20  0.39  0.13  0.29  0.41  0.24  
24          0.50  0.40  0.72  0.46  0.64  0.71  0.95  0.55  0.25  0.20  0.39  0.13  0.29  0.41  0.24  
25          0.47  0.38  0.69  0.44  0.60  0.67  0.90  0.52  0.23  0.19  0.37  0.13  0.27  0.39  0.23  
26          0.47  0.38  0.69  0.44  0.60  0.67  0.90  0.52  0.23  0.19  0.37  0.13  0.27  0.39  0.23  
27          0.47  0.38  0.69  0.44  0.60  0.67  0.90  0.52  0.23  0.19  0.37  0.13  0.27  0.39  0.23  
28          0.47  0.38  0.69  0.44  0.60  0.67  0.90  0.52  0.23  0.19  0.37  0.13  0.27  0.39  0.23  
29          0.47  0.38  0.69  0.44  0.60  0.67  0.90  0.52  0.23  0.19  0.37  0.13  0.27  0.39  0.23  
30          0.47  0.38  0.69  0.44  0.60  0.67  0.90  0.52  0.23  0.19  0.37  0.13  0.27  0.39  0.23  
31          0.47  0.38  0.69  0.44  0.60  0.67  0.90  0.52  0.23  0.19  0.37  0.13  0.27  0.39  0.23  
32          0.47  0.38  0.69  0.44  0.60  0.67  0.90  0.52  0.23  0.19  0.37  0.13  0.27  0.39  0.23  
33          0.47  0.38  0.69  0.44  0.60  0.67  0.90  0.52  0.23  0.19  0.37  0.13  0.27  0.39  0.23  
34          0.50  0.40  0.72  0.46  0.64  0.71  0.95  0.55  0.25  0.20  0.39  0.13  0.29  0.41  0.24  
35          0.50  0.40  0.72  0.46  0.64  0.71  0.95  0.55  0.25  0.20  0.39  0.13  0.29  0.41  0.24  
36          0.50  0.40  0.72  0.46  0.64  0.71  0.95  0.55  0.25  0.20  0.39  0.13  0.29  0.41  0.24  
37          0.50  0.40  0.72  0.46  0.64  0.71  0.95  0.55  0.25  0.20  0.39  0.13  0.29  0.41  0.24  
38          0.50  0.40  0.72  0.46  0.64  0.71  0.95  0.55  0.25  0.20  0.39  0.13  0.29  0.41  0.24  
39          0.50  0.40  0.72  0.46  0.64  0.71  0.95  0.55  0.25  0.20  0.39  0.13  0.29  0.41  0.24  
40          0.50  0.40  0.72  0.46  0.64  0.71  0.95  0.55  0.25  0.20  0.39  0.13  0.29  0.41  0.24  
41          0.50  0.40  0.72  0.46  0.64  0.71  0.95  0.55  0.25  0.20  0.39  0.13  0.29  0.41  0.24  
42          0.50  0.40  0.72  0.46  0.64  0.71  0.95  0.55  0.25  0.20  0.39  0.13  0.29  0.41  0.24  
43          0.50  0.40  0.72  0.46  0.64  0.71  0.95  0.55  0.25  0.20  0.39  0.13  0.29  0.41  0.24  
44          0.50  0.40  0.72  0.46  0.64  0.71  0.95  0.55  0.25  0.20  0.39  0.13  0.29  0.41  0.24  
45          0.50  0.40  0.72  0.46  0.64  0.71  0.95  0.55  0.25  0.20  0.39  0.13  0.29  0.41  0.24  
; # downloads resource k can do at front f in time t if starting or ending flight

param W: 
	F1        F2        F3        :=
1	1914.98   957.49    957.49    
2	7659.92   3829.96   3829.96   
3	7659.92   3829.96   3829.96   
4	7659.92   3829.96   3829.96   
5	7659.92   3829.96   3829.96   
6	7659.92   3829.96   3829.96   
7	7659.92   3829.96   3829.96   
8	7659.92   3829.96   3829.96   
9	7659.92   3829.96   3829.96   
10	7659.92   3829.96   3829.96   
11	7659.92   3829.96   3829.96   
12	7659.92   3829.96   3829.96   
13	7659.92   3829.96   3829.96   
14	7659.92   3829.96   3829.96   
15	7659.92   3829.96   3829.96   
16	7659.92   3829.96   3829.96   
17	7659.92   3829.96   3829.96   
18	7659.92   3829.96   3829.96   
19	3404.41   1702.20   1702.20   
20	3404.41   1702.20   1702.20   
21	3404.41   1702.20   1702.20   
22	3404.41   1702.20   1702.20   
23	3404.41   1702.20   1702.20   
24	3404.41   1702.20   1702.20   
25	3404.41   1702.20   1702.20   
26	3404.41   1702.20   1702.20   
27	3404.41   1702.20   1702.20   
28	3404.41   1702.20   1702.20   
29	3404.41   1702.20   1702.20   
30	3404.41   1702.20   1702.20   
31	3404.41   1702.20   1702.20   
32	3404.41   1702.20   1702.20   
33	3404.41   1702.20   1702.20   
34	3404.41   1702.20   1702.20   
35	3404.41   1702.20   1702.20   
36	3404.41   1702.20   1702.20   
37	3404.41   1702.20   1702.20   
38	3404.41   1702.20   1702.20   
39	3404.41   1702.20   1702.20   
40	3404.41   1702.20   1702.20   
41	3404.41   1702.20   1702.20   
42	3404.41   1702.20   1702.20   
43	3404.41   1702.20   1702.20   
44	3404.41   1702.20   1702.20   
45	851.10    425.55    425.55    
; # water needed at front f in time slot t

param M := 100000000; 

param a1:= 10000000;

param a2:= 100;

param a3:= 0.0001;
